PREC=A
ENCUT=700.000000
# ISYM=0
ALGO=Normal 
EDIFF=1.000000e-06
#LREAL=T
NPAR=4
KPAR=1

#NELMIN=4
ISYM=0
ISIF=2
ISMEAR=0
SIGMA=0.05
#IBRION=2

#NSW=0

LWAVE=T
LCHARG=T
PSTRESS=0

KSPACING=0.3
KGAMMA=F
